Route #1: 17 10 7 49 1 20 29 
Route #2: 28 13 22 52 45 55 54 58 
Route #3: 56 21 25 5 15 12 
Route #4: 43 27 51 2 41 16 
Route #5: 36 39 4 50 38 46 
Route #6: 53 44 40 6 34 64 42 
Route #7: 66 59 19 35 11 14 9 48 
Route #8: 18 26 31 47 33 
Route #9: 30 61 62 57 3 60 63 
Route #10: 37 23 8 65 32 24 
cost 1251.79
execution_time 26.49
